126.0 178.0
126.1 178.0
126.2 178.0
126.3 178.0
126.4 177.99
126.5 177.99
126.6 177.98
126.7 177.97
126.8 177.96
126.9 177.94
127.0 177.92
127.1 177.9
127.2 177.87
127.3 177.84
127.4 177.8
127.5 177.76
127.6 177.72
127.7 177.67
127.8 177.62
127.9 177.57
128.0 177.51
128.1 177.45
128.2 177.39
128.3 177.32
128.4 177.25
128.5 177.18
128.6 177.1
128.7 177.02
128.8 176.94
128.9 176.86
129.0 176.77
129.1 176.68
129.2 176.59
129.3 176.5
129.4 176.41
129.5 176.32
129.6 176.22
129.7 176.13
129.8 176.03
129.9 175.94
130.0 175.84
130.1 175.74
130.2 175.64
130.3 175.55
130.4 175.45
130.5 175.35
130.6 175.25
130.7 175.16
130.8 175.06
130.9 174.97
131.0 174.87
131.1 174.78
131.2 174.68
131.3 174.59
131.4 174.5
131.5 174.41
131.6 174.32
131.7 174.23
131.8 174.14
131.9 174.06
132.0 173.97
132.1 173.88
132.2 173.8
132.3 173.72
132.4 173.64
132.5 173.56
132.6 173.48
132.7 173.4
132.8 173.32
132.9 173.24
133.0 173.17
133.1 173.09
133.2 173.02
133.3 172.94
133.4 172.87
133.5 172.8
133.6 172.73
133.7 172.66
133.8 172.59
133.9 172.52
134.0 172.45
134.1 172.38
134.2 172.32
134.3 172.25
134.4 172.18
134.5 172.12
134.6 172.05
134.7 171.98
134.8 171.92
134.9 171.85
135.0 171.79
135.1 171.72
135.2 171.66
135.3 171.6
135.4 171.53
135.5 171.47
135.6 171.4
135.7 171.34
135.8 171.28
135.9 171.21
136.0 171.15
136.1 171.08
136.2 171.02
136.3 170.96
136.4 170.89
136.5 170.83
136.6 170.76
136.7 170.7
136.8 170.64
136.9 170.57
137.0 170.51
137.1 170.44
137.2 170.38
137.3 170.31
137.4 170.25
137.5 170.18
137.6 170.11
137.7 170.05
137.8 169.98
137.9 169.92
138.0 169.85
138.1 169.78
138.2 169.72
138.3 169.65
138.4 169.58
138.5 169.52
138.6 169.45
138.7 169.38
138.8 169.31
138.9 169.25
139.0 169.18
139.1 169.11
139.2 169.04
139.3 168.97
139.4 168.91
139.5 168.84
139.6 168.77
139.7 168.7
139.8 168.63
139.9 168.57
140.0 168.5
140.1 168.43
140.2 168.36
140.3 168.29
140.4 168.22
140.5 168.15
140.6 168.09
140.7 168.02
140.8 167.95
140.9 167.88
141.0 167.81
141.1 167.74
141.2 167.67
141.3 167.6
141.4 167.54
141.5 167.47
141.6 167.4
141.7 167.33
141.8 167.26
141.9 167.19
142.0 167.12
142.1 167.06
142.2 166.99
142.3 166.92
142.4 166.85
142.5 166.78
142.6 166.71
142.7 166.64
142.8 166.58
142.9 166.51
143.0 166.44
143.1 166.37
143.2 166.3
143.3 166.23
143.4 166.17
143.5 166.1
143.6 166.03
143.7 165.96
143.8 165.89
143.9 165.83
144.0 165.76
144.1 165.69
144.2 165.62
144.3 165.55
144.4 165.49
144.5 165.42
144.6 165.35
144.7 165.28
144.8 165.21
144.9 165.15
145.0 165.08
145.1 165.01
145.2 164.94
145.3 164.87
145.4 164.81
145.5 164.74
145.6 164.67
145.7 164.6
145.8 164.53
145.9 164.47
146.0 164.4
146.1 164.33
146.2 164.26
146.3 164.19
146.4 164.13
146.5 164.06
146.6 163.99
146.7 163.92
146.8 163.85
146.9 163.79
147.0 163.72
147.1 163.65
147.2 163.58
147.3 163.52
147.4 163.45
147.5 163.38
147.6 163.31
147.7 163.24
147.8 163.18
147.9 163.11
148.0 163.04
148.1 162.97
148.2 162.9
148.3 162.84
148.4 162.77
148.5 162.7
148.6 162.63
148.7 162.56
148.8 162.5
148.9 162.43
149.0 162.36
149.1 162.29
149.2 162.22
149.3 162.16
149.4 162.09
149.5 162.02
149.6 161.95
149.7 161.88
149.8 161.82
149.9 161.75
150.0 161.68
150.1 161.61
150.2 161.54
150.3 161.48
150.4 161.41
150.5 161.34
150.6 161.27
150.7 161.2
150.8 161.14
150.9 161.07
151.0 161.0
151.1 160.93
151.2 160.86
151.3 160.8
151.4 160.73
151.5 160.66
151.6 160.59
151.7 160.52
151.8 160.46
151.9 160.39
152.0 160.32
152.1 160.25
152.2 160.18
152.3 160.12
152.4 160.05
152.5 159.98
152.6 159.91
152.7 159.84
152.8 159.78
152.9 159.71
153.0 159.64
153.1 159.57
153.2 159.5
153.3 159.44
153.4 159.37
153.5 159.3
153.6 159.23
153.7 159.16
153.8 159.1
153.9 159.03
154.0 158.96
154.1 158.89
154.2 158.82
154.3 158.76
154.4 158.69
154.5 158.62
154.6 158.55
154.7 158.48
154.8 158.42
154.9 158.35
155.0 158.28
155.1 158.21
155.2 158.14
155.3 158.08
155.4 158.01
155.5 157.94
155.6 157.87
155.7 157.8
155.8 157.74
155.9 157.67
156.0 157.6
156.1 157.53
156.2 157.46
156.3 157.4
156.4 157.33
156.5 157.26
156.6 157.19
156.7 157.12
156.8 157.06
156.9 156.99
157.0 156.92
157.1 156.85
157.2 156.78
157.3 156.72
157.4 156.65
157.5 156.58
157.6 156.51
157.7 156.44
157.8 156.38
157.9 156.31
158.0 156.24
158.1 156.17
158.2 156.1
158.3 156.04
158.4 155.97
158.5 155.9
158.6 155.83
158.7 155.76
158.8 155.7
158.9 155.63
159.0 155.56
159.1 155.49
159.2 155.42
159.3 155.36
159.4 155.29
159.5 155.22
159.6 155.15
159.7 155.08
159.8 155.02
159.9 154.95
160.0 154.88
160.1 154.81
160.2 154.74
160.3 154.68
160.4 154.61
160.5 154.54
160.6 154.47
160.7 154.4
160.8 154.34
160.9 154.27
161.0 154.2
161.1 154.13
161.2 154.06
161.3 154.0
161.4 153.93
161.5 153.86
161.6 153.79
161.7 153.72
161.8 153.66
161.9 153.59
162.0 153.52
162.1 153.45
162.2 153.38
162.3 153.32
162.4 153.25
162.5 153.18
162.6 153.11
162.7 153.04
162.8 152.98
162.9 152.91
163.0 152.84
163.1 152.77
163.2 152.7
163.3 152.64
163.4 152.57
163.5 152.5
163.6 152.43
163.7 152.36
163.8 152.3
163.9 152.23
164.0 152.16
164.1 152.09
164.2 152.02
164.3 151.96
164.4 151.89
164.5 151.82
164.6 151.75
164.7 151.68
164.8 151.62
164.9 151.55
165.0 151.48
165.1 151.41
165.2 151.34
165.3 151.28
165.4 151.21
165.5 151.14
165.6 151.07
165.7 151.0
165.8 150.94
165.9 150.87
166.0 150.8
166.1 150.73
166.2 150.66
166.3 150.6
166.4 150.53
166.5 150.46
166.6 150.39
166.7 150.32
166.8 150.26
166.9 150.19
167.0 150.12
167.1 150.05
167.2 149.98
167.3 149.92
167.4 149.85
167.5 149.78
167.6 149.71
167.7 149.64
167.8 149.58
167.9 149.51
168.0 149.44
168.1 149.37
168.2 149.3
168.3 149.24
168.4 149.17
168.5 149.1
168.6 149.03
168.7 148.96
168.8 148.9
168.9 148.83
169.0 148.76
169.1 148.69
169.2 148.62
169.3 148.56
169.4 148.49
169.5 148.42
169.6 148.35
169.7 148.28
169.8 148.22
169.9 148.15
170.0 148.08
170.1 148.01
170.2 147.94
170.3 147.88
170.4 147.81
170.5 147.74
170.6 147.67
170.7 147.6
170.8 147.54
170.9 147.47
171.0 147.4
171.1 147.33
171.2 147.26
171.3 147.2
171.4 147.13
171.5 147.06
171.6 146.99
171.7 146.92
171.8 146.86
171.9 146.79
172.0 146.72
172.1 146.65
172.2 146.58
172.3 146.52
172.4 146.45
172.5 146.38
172.6 146.31
172.7 146.24
172.8 146.18
172.9 146.11
173.0 146.04
173.1 145.97
173.2 145.9
173.3 145.84
173.4 145.77
173.5 145.7
173.6 145.63
173.7 145.56
173.8 145.5
173.9 145.43
174.0 145.36
174.1 145.29
174.2 145.22
174.3 145.16
174.4 145.09
174.5 145.02
174.6 144.95
174.7 144.88
174.8 144.82
174.9 144.75
175.0 144.68
175.1 144.61
175.2 144.54
175.3 144.48
175.4 144.41
175.5 144.34
175.6 144.27
175.7 144.2
175.8 144.14
175.9 144.07
176.0 144.0
176.1 143.93
176.2 143.86
176.3 143.8
176.4 143.73
176.5 143.66
176.6 143.59
176.7 143.52
176.8 143.46
176.9 143.39
177.0 143.32
177.1 143.25
177.2 143.18
177.3 143.12
177.4 143.05
177.5 142.98
177.6 142.91
177.7 142.84
177.8 142.78
177.9 142.71
178.0 142.64
178.1 142.57
178.2 142.5
178.3 142.44
178.4 142.37
178.5 142.3
178.6 142.23
178.7 142.16
178.8 142.1
178.9 142.03
179.0 141.96
179.1 141.89
179.2 141.82
179.3 141.76
179.4 141.69
179.5 141.62
179.6 141.55
179.7 141.48
179.8 141.42
179.9 141.35
180.0 141.28
180.1 141.21
180.2 141.14
180.3 141.08
180.4 141.01
180.5 140.94
180.6 140.87
180.7 140.8
180.8 140.74
180.9 140.67
181.0 140.6
181.1 140.53
181.2 140.46
181.3 140.4
181.4 140.33
181.5 140.26
181.6 140.19
181.7 140.12
181.8 140.06
181.9 139.99
182.0 139.92
182.1 139.85
182.2 139.78
182.3 139.72
182.4 139.65
182.5 139.58
182.6 139.51
182.7 139.44
182.8 139.38
182.9 139.31
183.0 139.24
183.1 139.17
183.2 139.1
183.3 139.04
183.4 138.97
183.5 138.9
183.6 138.83
183.7 138.76
183.8 138.7
183.9 138.63
184.0 138.56
184.1 138.49
184.2 138.42
184.3 138.36
184.4 138.29
184.5 138.22
184.6 138.15
184.7 138.08
184.8 138.02
184.9 137.95
185.0 137.88
185.1 137.81
185.2 137.74
185.3 137.68
185.4 137.61
185.5 137.54
185.6 137.47
185.7 137.4
185.8 137.33
185.9 137.27
186.0 137.2
186.1 137.13
186.2 137.06
186.3 136.99
186.4 136.93
186.5 136.86
186.6 136.79
186.7 136.72
186.8 136.65
186.9 136.59
187.0 136.52
187.1 136.45
187.2 136.38
187.3 136.31
187.4 136.25
187.5 136.18
187.6 136.11
187.7 136.04
187.8 135.98
187.9 135.91
188.0 135.84
188.1 135.77
188.2 135.7
188.3 135.64
188.4 135.57
188.5 135.5
188.6 135.43
188.7 135.36
188.8 135.3
188.9 135.23
189.0 135.16
189.1 135.09
189.2 135.03
189.3 134.96
189.4 134.89
189.5 134.82
189.6 134.75
189.7 134.69
189.8 134.62
189.9 134.55
190.0 134.48
190.1 134.42
190.2 134.35
190.3 134.28
190.4 134.21
190.5 134.15
190.6 134.08
190.7 134.01
190.8 133.94
190.9 133.87
191.0 133.81
191.1 133.74
191.2 133.67
191.3 133.6
191.4 133.54
191.5 133.47
191.6 133.4
191.7 133.33
191.8 133.26
191.9 133.2
192.0 133.13
192.1 133.06
192.2 132.99
192.3 132.92
192.4 132.86
192.5 132.79
192.6 132.72
192.7 132.65
192.8 132.58
192.9 132.52
193.0 132.45
193.1 132.38
193.2 132.31
193.3 132.24
193.4 132.17
193.5 132.1
193.6 132.04
193.7 131.97
193.8 131.9
193.9 131.83
194.0 131.76
194.1 131.69
194.2 131.62
194.3 131.55
194.4 131.48
194.5 131.41
194.6 131.34
194.7 131.27
194.8 131.2
194.9 131.13
195.0 131.07
195.1 131.0
195.2 130.93
195.3 130.86
195.4 130.79
195.5 130.72
195.6 130.65
195.7 130.58
195.8 130.51
195.9 130.44
196.0 130.37
196.1 130.3
196.2 130.23
196.3 130.16
196.4 130.09
196.5 130.02
196.6 129.95
196.7 129.88
196.8 129.81
196.9 129.74
197.0 129.68
197.1 129.61
197.2 129.54
197.3 129.47
197.4 129.4
197.5 129.34
197.6 129.27
197.7 129.2
197.8 129.14
197.9 129.07
198.0 129.0
198.1 128.94
198.2 128.87
198.3 128.81
198.4 128.75
198.5 128.68
198.6 128.62
198.7 128.56
198.8 128.49
198.9 128.43
199.0 128.37
199.1 128.31
199.2 128.25
199.3 128.19
199.4 128.13
199.5 128.08
199.6 128.02
199.7 127.96
199.8 127.9
199.9 127.85
200.0 127.79
200.1 127.74
200.2 127.69
200.3 127.63
200.4 127.58
200.5 127.53
200.6 127.47
200.7 127.42
200.8 127.37
200.9 127.32
201.0 127.27
201.1 127.22
201.2 127.17
201.3 127.12
201.4 127.08
201.5 127.03
201.6 126.98
201.7 126.93
201.8 126.88
201.9 126.84
202.0 126.79
202.1 126.74
202.2 126.7
202.3 126.65
202.4 126.6
202.5 126.55
202.6 126.51
202.7 126.46
202.8 126.41
202.9 126.36
203.0 126.32
203.1 126.27
203.2 126.22
203.3 126.17
203.4 126.12
203.5 126.07
203.6 126.03
203.7 125.98
203.8 125.93
203.9 125.88
204.0 125.83
204.1 125.77
204.2 125.72
204.3 125.67
204.4 125.62
204.5 125.57
204.6 125.52
204.7 125.46
204.8 125.41
204.9 125.36
205.0 125.31
205.1 125.25
205.2 125.2
205.3 125.14
205.4 125.09
205.5 125.03
205.6 124.98
205.7 124.92
205.8 124.87
205.9 124.81
206.0 124.76
206.1 124.7
206.2 124.64
206.3 124.59
206.4 124.53
206.5 124.47
206.6 124.42
206.7 124.36
206.8 124.3
206.9 124.25
207.0 124.19
207.1 124.13
207.2 124.07
207.3 124.02
207.4 123.96
207.5 123.9
207.6 123.84
207.7 123.79
207.8 123.73
207.9 123.67
208.0 123.61
208.1 123.55
208.2 123.5
208.3 123.44
208.4 123.38
208.5 123.32
208.6 123.26
208.7 123.21
208.8 123.15
208.9 123.09
209.0 123.03
209.1 122.98
209.2 122.92
209.3 122.86
209.4 122.8
209.5 122.75
209.6 122.69
209.7 122.63
209.8 122.57
209.9 122.52
210.0 122.46
210.1 122.4
210.2 122.34
210.3 122.29
210.4 122.23
210.5 122.17
210.6 122.12
210.7 122.06
210.8 122.0
210.9 121.94
211.0 121.89
211.1 121.83
211.2 121.77
211.3 121.72
211.4 121.66
211.5 121.6
211.6 121.55
211.7 121.49
211.8 121.43
211.9 121.38
212.0 121.32
212.1 121.26
212.2 121.21
212.3 121.15
212.4 121.09
212.5 121.04
212.6 120.98
212.7 120.92
212.8 120.87
212.9 120.81
213.0 120.75
213.1 120.7
213.2 120.64
213.3 120.58
213.4 120.53
213.5 120.47
213.6 120.41
213.7 120.36
213.8 120.3
213.9 120.24
214.0 120.19
214.1 120.13
214.2 120.07
214.3 120.02
214.4 119.96
214.5 119.9
214.6 119.85
214.7 119.79
214.8 119.73
214.9 119.68
215.0 119.62
215.1 119.56
215.2 119.51
215.3 119.45
215.4 119.39
215.5 119.34
215.6 119.28
215.7 119.22
215.8 119.17
215.9 119.11
216.0 119.05
216.1 119.0
216.2 118.94
216.3 118.88
216.4 118.83
216.5 118.77
216.6 118.71
216.7 118.66
216.8 118.6
216.9 118.54
217.0 118.49
217.1 118.43
217.2 118.37
217.3 118.32
217.4 118.26
217.5 118.2
217.6 118.15
217.7 118.09
217.8 118.03
217.9 117.98
218.0 117.92
218.1 117.86
218.2 117.81
218.3 117.75
218.4 117.69
218.5 117.64
218.6 117.58
218.7 117.52
218.8 117.47
218.9 117.41
219.0 117.35
219.1 117.29
219.2 117.24
219.3 117.18
219.4 117.12
219.5 117.07
219.6 117.01
219.7 116.95
219.8 116.9
219.9 116.84
220.0 116.78
220.1 116.73
220.2 116.67
220.3 116.61
220.4 116.56
220.5 116.5
220.6 116.44
220.7 116.39
220.8 116.33
220.9 116.27
221.0 116.22
221.1 116.16
221.2 116.1
221.3 116.05
221.4 115.99
221.5 115.93
221.6 115.88
221.7 115.82
221.8 115.76
221.9 115.71
222.0 115.65
222.1 115.59
222.2 115.54
222.3 115.48
222.4 115.42
222.5 115.36
222.6 115.31
222.7 115.25
222.8 115.19
222.9 115.14
223.0 115.08
223.1 115.02
223.2 114.97
223.3 114.91
223.4 114.85
223.5 114.8
223.6 114.74
223.7 114.68
223.8 114.63
223.9 114.57
224.0 114.51
224.1 114.46
224.2 114.4
224.3 114.34
224.4 114.29
224.5 114.23
224.6 114.17
224.7 114.12
224.8 114.06
224.9 114.0
225.0 113.95
225.1 113.89
225.2 113.83
225.3 113.78
225.4 113.72
225.5 113.66
225.6 113.61
225.7 113.55
225.8 113.49
225.9 113.44
226.0 113.38
226.1 113.32
226.2 113.26
226.3 113.21
226.4 113.15
226.5 113.09
226.6 113.04
226.7 112.98
226.8 112.92
226.9 112.87
227.0 112.81
227.1 112.75
227.2 112.7
227.3 112.64
227.4 112.58
227.5 112.53
227.6 112.47
227.7 112.41
227.8 112.36
227.9 112.3
228.0 112.24
228.1 112.19
228.2 112.13
228.3 112.07
228.4 112.02
228.5 111.96
228.6 111.9
228.7 111.85
228.8 111.79
228.9 111.73
229.0 111.68
229.1 111.62
229.2 111.56
229.3 111.51
229.4 111.45
229.5 111.39
229.6 111.34
229.7 111.28
229.8 111.22
229.9 111.16
230.0 111.11
230.1 111.05
230.2 110.99
230.3 110.94
230.4 110.88
230.5 110.82
230.6 110.77
230.7 110.71
230.8 110.65
230.9 110.6
231.0 110.54
231.1 110.48
231.2 110.43
231.3 110.37
231.4 110.31
231.5 110.26
231.6 110.2
231.7 110.14
231.8 110.09
231.9 110.03
232.0 109.97
232.1 109.92
232.2 109.86
232.3 109.8
232.4 109.75
232.5 109.69
232.6 109.63
232.7 109.58
232.8 109.52
232.9 109.46
233.0 109.41
233.1 109.35
233.2 109.29
233.3 109.24
233.4 109.18
233.5 109.12
233.6 109.06
233.7 109.01
233.8 108.95
233.9 108.89
234.0 108.84
234.1 108.78
234.2 108.72
234.3 108.67
234.4 108.61
234.5 108.55
234.6 108.5
234.7 108.44
234.8 108.38
234.9 108.33
235.0 108.27
235.1 108.21
235.2 108.16
235.3 108.1
235.4 108.04
235.5 107.99
235.6 107.93
235.7 107.87
235.8 107.82
235.9 107.76
236.0 107.7
236.1 107.65
236.2 107.59
236.3 107.53
236.4 107.48
236.5 107.42
236.6 107.36
236.7 107.31
236.8 107.25
236.9 107.19
237.0 107.14
237.1 107.08
237.2 107.02
237.3 106.96
237.4 106.91
237.5 106.85
237.6 106.79
237.7 106.74
237.8 106.68
237.9 106.62
238.0 106.57
238.1 106.51
238.2 106.45
238.3 106.4
238.4 106.34
238.5 106.28
238.6 106.23
238.7 106.17
238.8 106.11
238.9 106.06
239.0 106.0
